64
64 248 764 842 1058 1090 1410 1482 1662 1704 1934 2162 2192 2352 2360 2436 2566 2580 2662 2768 2776 3034 3172 3246 3340 3840 4370 4480 4980 5190 5428 5966 6108 6130 6166 6226 6258 6354 6476 6594 6686 6946 6972 7128 7136 7296 7304 7464 7472 7710 7898 7988 8236 8384 8775 9182 9466 9668 9732 9836 9900 10004 10252 10420 